Version identifier: 20.1.0.0 | 2020-11-10 | 9bedb6d68
CPXPARAM_Threads                                 1
CPXPARAM_TimeLimit                               7200
CPXPARAM_MIP_Tolerances_MIPGap                   0
Generic callback                                 0x60
1 of 1 MIP starts provided solutions.
MIP start 'm1' defined initial solution with objective 2577.1441.
Tried aggregator 1 time.
Reduced MIP has 1 rows, 1001 columns, and 1000 nonzeros.
Reduced MIP has 1000 binaries, 0 generals, 0 SOSs, and 0 indicators.
Presolve time = 0.00 sec. (0.30 ticks)
Probing time = 0.00 sec. (0.11 ticks)
Tried aggregator 1 time.
Reduced MIP has 1 rows, 1001 columns, and 1000 nonzeros.
Reduced MIP has 1000 binaries, 0 generals, 0 SOSs, and 0 indicators.
Presolve time = 0.00 sec. (0.31 ticks)
Probing time = 0.00 sec. (0.11 ticks)
MIP emphasis: balance optimality and feasibility.
MIP search method: dynamic search.
Parallel mode: none, using 1 thread.
Root relaxation solution time = 0.00 sec. (0.21 ticks)

        Nodes                                         Cuts/
   Node  Left     Objective  IInf  Best Integer    Best Bound    ItCnt     Gap

*     0+    0                         2577.1441     4368.0000            69.49%
      0     0     3542.0393     2     2577.1441     4368.0000        0   69.49%
      0     0     3178.1956     4     2577.1441 UserPurge2: 1        7   23.32%
      0     0     3121.8517     4     2577.1441 UserPurge2: 1       12   21.14%
      0     0     2963.4236     5     2577.1441 UserPurge2: 1       28   14.99%
      0     0     2936.2406     6     2577.1441 UserPurge2: 1       39   13.93%
      0     0     2884.7582     7     2577.1441 UserPurge2: 1       56   11.94%
      0     0     2839.4098     7     2577.1441 UserPurge2: 1       70   10.18%
      0     0     2813.0052     9     2577.1441 UserPurge2: 1       87    9.15%
      0     0     2783.0434     9     2577.1441 UserPurge2: 1      107    7.99%
      0     0     2771.9821    10     2577.1441 UserPurge2: 1      127    7.56%
      0     0     2756.3765    11     2577.1441 UserPurge2: 1      155    6.95%
      0     0     2743.9283    12     2577.1441 UserPurge2: 1      176    6.47%
      0     0     2736.5121    12     2577.1441 UserPurge2: 1      198    6.18%
      0     0     2734.4819    13     2577.1441 UserPurge2: 1      221    6.11%
      0     0     2730.8309    15     2577.1441 UserPurge2: 1      248    5.96%
      0     0     2719.8793    15     2577.1441 UserPurge2: 1      283    5.54%
      0     0     2715.7270    17     2577.1441 UserPurge2: 1      309    5.38%
      0     0     2701.1344    15     2577.1441 UserPurge2: 1      332    4.81%
      0     0     2696.8460    16     2577.1441 UserPurge1: 2      343    4.64%
      0     0     2695.0587    18     2577.1441 UserPurge1: 1      349    4.58%
      0     0     2691.5118    16     2577.1441 UserPurge2: 1      374    4.44%
      0     0     2690.7607    18     2577.1441 UserPurge1: 1      383    4.41%
      0     0     2689.9412    17     2577.1441 UserPurge2: 1      397    4.38%
      0     0     2687.0415    18     2577.1441 UserPurge2: 1      445    4.26%
      0     0     2683.6920    16     2577.1441 UserPurge2: 1      474    4.13%
      0     0     2682.0405    16     2577.1441 UserPurge1: 2      482    4.07%
      0     0     2681.9605    18     2577.1441 UserPurge1: 2      491    4.07%
      0     0     2679.1054    16     2577.1441 UserPurge2: 1      526    3.96%
      0     0     2675.0413    15     2577.1441 UserPurge2: 1      561    3.80%
      0     0     2671.5932    15     2577.1441 UserPurge2: 1      581    3.66%
      0     0     2670.3380    16     2577.1441 UserPurge2: 1      592    3.62%
      0     0     2669.9087    16     2577.1441 UserPurge2: 1      611    3.60%
      0     0     2668.5094    17     2577.1441 UserPurge2: 1      640    3.55%
      0     0     2667.7009    17     2577.1441 UserPurge2: 1      667    3.51%
      0     0     2666.5148    17     2577.1441 UserPurge2: 1      693    3.47%
      0     0     2665.2636    17     2577.1441 UserPurge2: 1      721    3.42%
      0     0     2664.0320    18     2577.1441 UserPurge2: 1      744    3.37%
      0     0     2661.9119    18     2577.1441 UserPurge2: 1      782    3.29%
      0     0     2660.5113    16     2577.1441 UserPurge2: 1      818    3.23%
      0     0     2659.8466    17     2577.1441 UserPurge2: 1      834    3.21%
      0     0     2658.2193    18     2577.1441 UserPurge2: 1      857    3.15%
      0     0     2653.3739    16     2577.1441 UserPurge2: 1      896    2.96%
      0     0     2652.5400    17     2577.1441 UserPurge2: 1      906    2.93%
      0     0     2650.5856    16     2577.1441 UserPurge2: 1      938    2.85%
      0     0     2646.4817    16     2577.1441 UserPurge2: 1      971    2.69%
      0     0     2645.5154    17     2577.1441 UserPurge2: 1      992    2.65%
      0     0     2644.6931    18     2577.1441 UserPurge2: 1     1009    2.62%
      0     0     2643.4100    16     2577.1441 UserPurge2: 1     1030    2.57%
      0     0     2641.9241    16     2577.1441 UserPurge2: 1     1057    2.51%
      0     0     2641.4831    17     2577.1441 UserPurge2: 1     1078    2.50%
      0     0     2641.1467    18     2577.1441 UserPurge2: 1     1097    2.48%
      0     0     2640.5192    18     2577.1441 UserPurge2: 1     1114    2.46%
      0     0     2640.2436    20     2577.1441 UserPurge2: 1     1137    2.45%
      0     0     2639.6925    18     2577.1441 UserPurge2: 1     1163    2.43%
      0     0     2639.5332    18     2577.1441 UserPurge2: 1     1180    2.42%
      0     0     2639.1510    18     2577.1441 UserPurge2: 1     1206    2.41%
      0     0     2638.7136    19     2577.1441 UserPurge2: 1     1221    2.39%
      0     0     2638.5193    20     2577.1441 UserPurge2: 1     1234    2.38%
      0     0     2637.6382    19     2577.1441 UserPurge2: 1     1268    2.35%
      0     0     2637.2522    20     2577.1441 UserPurge2: 1     1294    2.33%
      0     0     2636.5514    20     2577.1441 UserPurge2: 1     1323    2.31%
      0     0     2635.9128    20     2577.1441 UserPurge2: 1     1349    2.28%
      0     0     2635.4492    21     2577.1441 UserPurge2: 1     1367    2.26%
      0     0     2634.2856    21     2577.1441 UserPurge2: 1     1405    2.22%
      0     0     2633.6216    20     2577.1441 UserPurge2: 1     1430    2.19%
      0     0     2632.2959    17     2577.1441 UserPurge2: 1     1464    2.14%
      0     0     2631.3304    18     2577.1441 UserPurge2: 1     1488    2.10%
      0     0     2630.3793    19     2577.1441 UserPurge2: 1     1509    2.07%
      0     0     2630.0562    20     2577.1441 UserPurge2: 1     1524    2.05%
      0     0     2629.5710    20     2577.1441 UserPurge2: 1     1552    2.03%
      0     0     2628.9086    21     2577.1441 UserPurge2: 1     1581    2.01%
      0     0     2627.6305    21     2577.1441 UserPurge2: 1     1621    1.96%
      0     0     2627.1292    20     2577.1441 UserPurge2: 1     1640    1.94%
      0     0     2626.4664    18     2577.1441 UserPurge2: 1     1662    1.91%
      0     0     2626.1321    18     2577.1441 UserPurge2: 1     1671    1.90%
      0     0     2625.9180    19     2577.1441 UserPurge2: 1     1682    1.89%
      0     0     2624.6642    18     2577.1441 UserPurge2: 1     1720    1.84%
      0     0     2624.3110    19     2577.1441 UserPurge2: 1     1737    1.83%
      0     0     2623.5031    19     2577.1441 UserPurge2: 1     1766    1.80%
      0     0     2623.1473    18     2577.1441 UserPurge2: 1     1796    1.79%
      0     0     2623.0258    19     2577.1441 UserPurge2: 1     1805    1.78%
      0     0     2622.7538    20     2577.1441 UserPurge2: 1     1824    1.77%
      0     0     2622.1926    20     2577.1441 UserPurge2: 1     1845    1.75%
      0     0     2621.5917    20     2577.1441 UserPurge2: 1     1875    1.72%
      0     0     2621.2872    20     2577.1441 UserPurge2: 1     1894    1.71%
      0     0     2621.0685    21     2577.1441 UserPurge2: 1     1907    1.70%
      0     0     2621.0173    22     2577.1441 UserPurge2: 1     1915    1.70%
      0     0     2620.7613    23     2577.1441 UserPurge2: 1     1943    1.69%
      0     0     2620.3436    22     2577.1441 UserPurge2: 1     1973    1.68%
      0     0     2620.0360    21     2577.1441 UserPurge2: 1     1994    1.66%
      0     0     2619.9654    22     2577.1441 UserPurge2: 1     2004    1.66%
      0     0     2619.7964    23     2577.1441 UserPurge2: 1     2024    1.66%
      0     0     2619.6402    24     2577.1441 UserPurge2: 1     2047    1.65%
      0     0     2619.2941    25     2577.1441 UserPurge2: 1     2086    1.64%
      0     0     2618.9987    25     2577.1441 UserPurge2: 1     2112    1.62%
      0     0     2618.8398    26     2577.1441 UserPurge2: 1     2134    1.62%
      0     0     2618.3638    25     2577.1441 UserPurge2: 1     2169    1.60%
      0     0     2617.9893    26     2577.1441 UserPurge2: 1     2195    1.58%
      0     0     2617.8626    26     2577.1441 UserPurge2: 1     2217    1.58%
      0     0     2617.7344    26     2577.1441 UserPurge2: 1     2234    1.58%
      0     0     2617.4708    26     2577.1441 UserPurge2: 1     2263    1.56%
      0     0     2617.0937    26     2577.1441 UserPurge2: 1     2291    1.55%
      0     0     2616.8038    27     2577.1441 UserPurge2: 1     2315    1.54%
      0     0     2616.1659    26     2577.1441 UserPurge2: 1     2374    1.51%
      0     0     2615.8960    25     2577.1441 UserPurge2: 1     2401    1.50%
      0     0     2615.5986    26     2577.1441 UserPurge2: 1     2426    1.49%
      0     0     2615.3939    26     2577.1441 UserPurge2: 1     2460    1.48%
      0     0     2615.1564    26     2577.1441 UserPurge2: 1     2479    1.47%
      0     0     2614.9505    27     2577.1441 UserPurge2: 1     2507    1.47%
      0     0     2614.3514    27     2577.1441 UserPurge2: 1     2552    1.44%
      0     0     2613.7791    27     2577.1441 UserPurge2: 1     2588    1.42%
      0     0     2613.0489    27     2577.1441 UserPurge2: 1     2626    1.39%
      0     0     2612.4573    25     2577.1441 UserPurge2: 1     2657    1.37%
      0     0     2612.2845    25     2577.1441 UserPurge2: 1     2678    1.36%
      0     0     2612.1533    26     2577.1441 UserPurge2: 1     2691    1.36%
      0     0     2611.9140    26     2577.1441 UserPurge2: 1     2723    1.35%
      0     0     2611.5945    26     2577.1441 UserPurge2: 1     2757    1.34%
      0     0     2611.4729    25     2577.1441 UserPurge2: 1     2774    1.33%
      0     0     2611.2590    25     2577.1441 UserPurge2: 1     2804    1.32%
      0     0     2611.1585    25     2577.1441 UserPurge2: 1     2814    1.32%
      0     0     2611.0640    26     2577.1441 UserPurge2: 1     2826    1.32%
      0     0     2611.0002    26     2577.1441 UserPurge2: 1     2849    1.31%
      0     0     2610.8898    27     2577.1441 UserPurge2: 1     2866    1.31%
      0     0     2610.7273    28     2577.1441 UserPurge2: 1     2896    1.30%
      0     0     2610.5873    28     2577.1441 UserPurge2: 1     2919    1.30%
      0     0     2610.4354    29     2577.1441 UserPurge2: 1     2954    1.29%
      0     0     2610.0952    28     2577.1441 UserPurge2: 1     2995    1.28%
      0     0     2609.6405    28     2577.1441 UserPurge2: 1     3030    1.26%
      0     0     2609.3737    28     2577.1441 UserPurge2: 1     3063    1.25%
      0     0     2609.2453    28     2577.1441 UserPurge2: 1     3105    1.25%
      0     0     2609.1584    28     2577.1441 UserPurge2: 1     3127    1.24%
      0     0     2609.0470    29     2577.1441 UserPurge2: 1     3151    1.24%
      0     0     2608.8703    30     2577.1441 UserPurge2: 1     3182    1.23%
      0     0     2608.6392    29     2577.1441 UserPurge2: 1     3222    1.22%
      0     0     2608.2892    26     2577.1441 UserPurge2: 1     3255    1.21%
      0     0     2608.2135    27     2577.1441 UserPurge2: 1     3265    1.21%
      0     0     2608.0760    28     2577.1441 UserPurge2: 1     3284    1.20%
      0     0     2607.9331    28     2577.1441 UserPurge2: 1     3315    1.19%
      0     0     2607.6891    28     2577.1441 UserPurge2: 1     3359    1.19%
      0     0     2607.2794    28     2577.1441 UserPurge2: 1     3399    1.17%
      0     0     2607.1071    28     2577.1441 UserPurge2: 1     3425    1.16%
      0     0     2606.8951    28     2577.1441 UserPurge2: 1     3453    1.15%
      0     0     2606.7535    29     2577.1441 UserPurge2: 1     3478    1.15%
      0     0     2606.4913    30     2577.1441 UserPurge2: 1     3526    1.14%
      0     0     2606.3589    30     2577.1441 UserPurge2: 1     3553    1.13%
      0     0     2606.1132    28     2577.1441 UserPurge2: 1     3590    1.12%
      0     0     2605.9766    28     2577.1441 UserPurge2: 1     3614    1.12%
      0     0     2605.8578    28     2577.1441 UserPurge2: 1     3637    1.11%
      0     0     2605.6399    29     2577.1441 UserPurge2: 1     3675    1.11%
      0     0     2605.5332    29     2577.1441 UserPurge2: 1     3703    1.10%
      0     0     2605.3172    29     2577.1441 UserPurge2: 1     3753    1.09%
      0     0     2605.1501    30     2577.1441 UserPurge2: 1     3772    1.09%
      0     0     2604.8358    31     2577.1441 UserPurge2: 1     3805    1.07%
      0     0     2604.2743    27     2577.1441 UserPurge2: 1     3855    1.05%
      0     0     2604.1010    28     2577.1441 UserPurge2: 1     3874    1.05%
      0     0     2604.0444    29     2577.1441 UserPurge2: 1     3884    1.04%
      0     0     2603.5306    28     2577.1441 UserPurge2: 1     3927    1.02%
      0     0     2603.2740    27     2577.1441 UserPurge2: 1     3948    1.01%
      0     0     2602.7698    25     2577.1441 UserPurge2: 1     3987    0.99%
      0     0     2602.6536    25     2577.1441 UserPurge2: 1     4009    0.99%
      0     0     2602.4502    23     2577.1441 UserPurge2: 1     4032    0.98%
      0     0     2602.3869    23     2577.1441 UserPurge2: 1     4040    0.98%
      0     0     2602.2803    24     2577.1441 UserPurge2: 1     4058    0.98%
      0     0     2602.1911    24     2577.1441 UserPurge2: 1     4079    0.97%
      0     0     2602.1381    26     2577.1441 UserPurge2: 1     4105    0.97%
      0     0     2602.0845    27     2577.1441 UserPurge2: 1     4123    0.97%
      0     0     2602.0281    27     2577.1441 UserPurge2: 1     4140    0.97%
      0     0     2601.9673    28     2577.1441 UserPurge2: 1     4159    0.96%
      0     0     2601.8558    29     2577.1441 UserPurge2: 1     4194    0.96%
      0     0     2601.6378    28     2577.1441 UserPurge2: 1     4227    0.95%
      0     0     2601.5579    28     2577.1441 UserPurge2: 1     4240    0.95%
      0     0     2601.4775    28     2577.1441 UserPurge2: 1     4252    0.94%
      0     0     2601.4324    28     2577.1441 UserPurge2: 1     4269    0.94%
      0     0     2601.3384    27     2577.1441 UserPurge2: 1     4296    0.94%
      0     0     2601.2922    28     2577.1441 UserPurge2: 1     4318    0.94%
      0     0     2601.2694    29     2577.1441 UserPurge2: 1     4332    0.94%
      0     0     2601.1979    30     2577.1441 UserPurge2: 1     4357    0.93%
      0     0     2601.0011    29     2577.1441 UserPurge2: 1     4394    0.93%
      0     0     2600.9116    27     2577.1441 UserPurge2: 1     4414    0.92%
      0     0     2600.8868    28     2577.1441 UserPurge2: 1     4426    0.92%
      0     0     2600.7890    29     2577.1441 UserPurge2: 1     4450    0.92%
      0     0     2600.7076    28     2577.1441 UserPurge2: 1     4476    0.91%
      0     0     2600.5664    27     2577.1441 UserPurge2: 1     4495    0.91%
      0     0     2600.4839    26     2577.1441 UserPurge2: 1     4519    0.91%
      0     0     2600.4388    27     2577.1441 UserPurge2: 1     4537    0.90%
      0     0     2600.4031    28     2577.1441 UserPurge2: 1     4554    0.90%
      0     0     2600.2989    29     2577.1441 UserPurge2: 1     4578    0.90%
      0     0     2600.2042    28     2577.1441 UserPurge2: 1     4606    0.89%
      0     0     2600.1743    28     2577.1441 UserPurge2: 1     4623    0.89%
      0     0     2600.1210    27     2577.1441 UserPurge2: 1     4641    0.89%
      0     0     2600.0765    28     2577.1441 UserPurge2: 1     4664    0.89%
      0     0     2600.0421    28     2577.1441 UserPurge2: 1     4677    0.89%
      0     0     2600.0216    29     2577.1441 UserPurge2: 1     4698    0.89%
      0     0     2599.9542    29     2577.1441 UserPurge2: 1     4719    0.89%
      0     0     2599.9064    29     2577.1441 UserPurge2: 1     4733    0.88%
      0     0     2599.8907    29     2577.1441 UserPurge2: 1     4742    0.88%
      0     0     2599.8409    30     2577.1441 UserPurge2: 1     4768    0.88%
      0     0     2599.8293    31     2577.1441 UserPurge2: 1     4786    0.88%
      0     0     2599.7806    32     2577.1441 UserPurge2: 1     4822    0.88%
      0     0     2599.6784    31     2577.1441 UserPurge2: 1     4848    0.87%
      0     0     2599.5532    31     2577.1441 UserPurge2: 1     4876    0.87%
      0     0     2599.3908    29     2577.1441 UserPurge2: 1     4906    0.86%
      0     0     2599.2880    30     2577.1441 UserPurge2: 1     4924    0.86%
      0     0     2599.2390    31     2577.1441 UserPurge2: 1     4939    0.86%
      0     0     2599.1280    30     2577.1441 UserPurge2: 1     4964    0.85%
      0     0     2598.8214    28     2577.1441 UserPurge2: 1     5000    0.84%
      0     0     2598.7123    28     2577.1441 UserPurge2: 1     5021    0.84%
      0     0     2598.5972    29     2577.1441 UserPurge2: 1     5049    0.83%
      0     0     2598.5246    28     2577.1441 UserPurge2: 1     5076    0.83%
      0     0     2598.4936    29     2577.1441 UserPurge2: 1     5088    0.83%
      0     0     2598.4602    30     2577.1441 UserPurge2: 1     5100    0.83%
      0     0     2598.4079    30     2577.1441 UserPurge2: 1     5123    0.83%
      0     0     2598.3132    31     2577.1441 UserPurge2: 1     5159    0.82%
      0     0     2598.2786    32     2577.1441 UserPurge2: 1     5171    0.82%
      0     0     2598.1126    30     2577.1441 UserPurge2: 1     5210    0.81%
      0     0     2597.9628    28     2577.1441 UserPurge2: 1     5250    0.81%
      0     0     2597.8924    28     2577.1441 UserPurge2: 1     5264    0.81%
      0     0     2597.8235    28     2577.1441 UserPurge2: 1     5279    0.80%
      0     0     2597.7863    29     2577.1441 UserPurge2: 1     5292    0.80%
      0     0     2597.7148    29     2577.1441 UserPurge2: 1     5324    0.80%
      0     0     2597.6394    29     2577.1441 UserPurge2: 1     5341    0.80%
      0     0     2597.6202    30     2577.1441 UserPurge2: 1     5365    0.79%
      0     0     2597.5940    30     2577.1441 UserPurge2: 1     5388    0.79%
      0     0     2597.4803    30     2577.1441 UserPurge2: 1     5414    0.79%
      0     0     2597.4402    30     2577.1441 UserPurge2: 1     5428    0.79%
      0     0     2597.4073    29     2577.1441 UserPurge2: 1     5450    0.79%
      0     0     2597.3954    30     2577.1441 UserPurge2: 1     5463    0.79%
      0     0     2597.3887    31     2577.1441 UserPurge2: 1     5472    0.79%
      0     0     2597.3349    32     2577.1441 UserPurge2: 1     5502    0.78%
      0     0     2597.2594    29     2577.1441 UserPurge2: 1     5527    0.78%
      0     0     2597.2131    29     2577.1441 UserPurge2: 1     5543    0.78%
      0     0     2597.1760    29     2577.1441 UserPurge2: 1     5568    0.78%
      0     0     2597.1368    30     2577.1441 UserPurge2: 1     5594    0.78%
      0     0     2597.1169    31     2577.1441 UserPurge2: 1     5607    0.77%
      0     0     2597.0747    31     2577.1441 UserPurge2: 1     5631    0.77%
      0     0     2597.0651    31     2577.1441 UserPurge2: 1     5651    0.77%
      0     0     2597.0155    32     2577.1441 UserPurge2: 1     5683    0.77%
      0     0     2596.9764    31     2577.1441 UserPurge2: 1     5706    0.77%
      0     0     2596.9413    31     2577.1441 UserPurge2: 1     5732    0.77%
      0     0     2596.9226    32     2577.1441 UserPurge2: 1     5755    0.77%
      0     0     2596.8920    31     2577.1441 UserPurge2: 1     5775    0.77%
      0     0     2596.8617    32     2577.1441 UserPurge2: 1     5794    0.77%
      0     0     2596.8391    31     2577.1441 UserPurge2: 1     5817    0.76%
      0     0     2596.8276    32     2577.1441 UserPurge2: 1     5835    0.76%
      0     0     2596.8140    33     2577.1441 UserPurge2: 1     5854    0.76%
      0     0     2596.7996    34     2577.1441 UserPurge2: 1     5883    0.76%
      0     0     2596.7805    35     2577.1441 UserPurge2: 1     5907    0.76%
      0     0     2596.7571    35     2577.1441 UserPurge2: 1     5933    0.76%
      0     0     2596.7013    35     2577.1441 UserPurge2: 1     5968    0.76%
      0     0     2596.6770    36     2577.1441 UserPurge2: 1     5991    0.76%
      0     0     2596.5973    33     2577.1441 UserPurge2: 1     6036    0.75%
      0     0     2596.5170    34     2577.1441 UserPurge2: 1     6065    0.75%
      0     0     2596.4964    35     2577.1441 UserPurge2: 1     6083    0.75%
      0     0     2596.4599    35     2577.1441 UserPurge2: 1     6117    0.75%
      0     0     2596.3990    34     2577.1441 UserPurge2: 1     6158    0.75%
      0     0     2596.3112    33     2577.1441 UserPurge2: 1     6190    0.74%
      0     0     2596.2944    33     2577.1441 UserPurge2: 1     6206    0.74%
      0     0     2596.2850    34     2577.1441 UserPurge2: 1     6220    0.74%
      0     0     2596.2705    34     2577.1441 UserPurge2: 1     6247    0.74%
      0     0     2596.2481    35     2577.1441 UserPurge2: 1     6272    0.74%
      0     0     2596.1771    35     2577.1441 UserPurge2: 1     6311    0.74%
      0     0     2596.0293    34     2577.1441 UserPurge2: 1     6365    0.73%
      0     0     2595.9614    34     2577.1441 UserPurge2: 1     6388    0.73%
      0     0     2595.7571    33     2577.1441 UserPurge2: 1     6422    0.72%
      0     0     2595.6184    32     2577.1441 UserPurge2: 1     6453    0.72%
      0     0     2595.5560    31     2577.1441 UserPurge2: 1     6479    0.71%
      0     0     2595.5105    31     2577.1441 UserPurge2: 1     6500    0.71%
      0     0     2595.4438    32     2577.1441 UserPurge2: 1     6521    0.71%
      0     0     2595.4229    33     2577.1441 UserPurge2: 1     6539    0.71%
      0     0     2595.4000    34     2577.1441 UserPurge2: 1     6556    0.71%
      0     0     2595.3786    35     2577.1441 UserPurge2: 1     6567    0.71%
      0     0     2595.3569    36     2577.1441 UserPurge2: 1     6585    0.71%
      0     0     2595.3139    36     2577.1441 UserPurge2: 1     6622    0.71%
      0     0     2595.2116    34     2577.1441 UserPurge2: 1     6658    0.70%
      0     0     2595.1419    34     2577.1441 UserPurge2: 1     6682    0.70%
      0     0     2595.0546    34     2577.1441 UserPurge2: 1     6713    0.69%
      0     0     2595.0000    35     2577.1441 UserPurge2: 1     6744    0.69%
      0     0     2594.9607    35     2577.1441 UserPurge2: 1     6775    0.69%
      0     0     2594.9231    35     2577.1441 UserPurge2: 1     6793    0.69%
      0     0     2594.8705    35     2577.1441 UserPurge2: 1     6842    0.69%
      0     0     2594.8307    36     2577.1441 UserPurge2: 1     6868    0.69%
      0     0     2594.7935    36     2577.1441 UserPurge2: 1     6900    0.68%
      0     0     2594.7589    36     2577.1441 UserPurge2: 1     6931    0.68%
      0     0     2594.7301    37     2577.1441 UserPurge2: 1     6959    0.68%
      0     0     2594.6881    37     2577.1441 UserPurge2: 1     6984    0.68%
      0     0     2594.6386    37     2577.1441 UserPurge2: 1     7009    0.68%
      0     0     2594.5866    37     2577.1441 UserPurge2: 1     7043    0.68%
      0     0     2594.5082    37     2577.1441 UserPurge2: 1     7080    0.67%
      0     0     2594.4045    37     2577.1441 UserPurge2: 1     7131    0.67%
      0     0     2594.3877    35     2577.1441 UserPurge2: 1     7147    0.67%
      0     0     2594.3648    36     2577.1441 UserPurge2: 1     7172    0.67%
      0     0     2594.3361    37     2577.1441 UserPurge2: 1     7198    0.67%
      0     0     2594.3221    37     2577.1441 UserPurge2: 1     7221    0.67%
      0     0     2594.3082    37     2577.1441 UserPurge2: 1     7241    0.67%
      0     0     2594.2637    37     2577.1441 UserPurge2: 1     7285    0.66%
      0     0     2594.1885    35     2577.1441 UserPurge2: 1     7329    0.66%
      0     0     2594.1542    36     2577.1441 UserPurge2: 1     7349    0.66%
      0     0     2594.1099    37     2577.1441 UserPurge2: 1     7374    0.66%
      0     0     2594.0327    37     2577.1441 UserPurge2: 1     7410    0.66%
      0     0     2593.9589    38     2577.1441 UserPurge2: 1     7434    0.65%
      0     0     2593.9247    38     2577.1441 UserPurge2: 1     7461    0.65%
      0     0     2593.8617    38     2577.1441 UserPurge2: 1     7489    0.65%
      0     0     2593.8176    39     2577.1441 UserPurge2: 1     7510    0.65%
      0     0     2593.7472    39     2577.1441 UserPurge2: 1     7540    0.64%
      0     0     2593.6865    40     2577.1441 UserPurge2: 1     7579    0.64%
      0     0     2593.5975    40     2577.1441 UserPurge2: 1     7625    0.64%
      0     0     2593.4843    38     2577.1441 UserPurge2: 1     7666    0.63%
      0     0     2593.4346    38     2577.1441 UserPurge2: 1     7686    0.63%
      0     0     2593.4101    39     2577.1441 UserPurge2: 1     7701    0.63%
      0     0     2593.3914    38     2577.1441 UserPurge2: 1     7727    0.63%
      0     0     2593.3469    38     2577.1441 UserPurge2: 1     7761    0.63%
      0     0     2593.3153    37     2577.1441 UserPurge2: 1     7792    0.63%
      0     0     2593.2961    38     2577.1441 UserPurge2: 1     7810    0.63%
      0     0     2593.2648    39     2577.1441 UserPurge2: 1     7843    0.63%
      0     0     2593.2128    39     2577.1441 UserPurge2: 1     7869    0.62%
      0     0     2593.1345    40     2577.1441 UserPurge2: 1     7907    0.62%
      0     0     2593.0328    38     2577.1441 UserPurge2: 1     7935    0.62%
      0     0     2592.9494    38     2577.1441 UserPurge2: 1     7969    0.61%
      0     0     2592.8697    39     2577.1441 UserPurge2: 1     8012    0.61%
      0     0     2592.8289    38     2577.1441 UserPurge2: 1     8043    0.61%
      0     0     2592.7918    37     2577.1441 UserPurge2: 1     8067    0.61%
      0     0     2592.7749    37     2577.1441 UserPurge2: 1     8087    0.61%
      0     0     2592.7504    37     2577.1441 UserPurge2: 1     8111    0.61%
      0     0     2592.7322    37     2577.1441 UserPurge2: 1     8129    0.60%
      0     0     2592.7276    38     2577.1441 UserPurge2: 1     8141    0.60%
      0     0     2592.7215    39     2577.1441 UserPurge2: 1     8158    0.60%
      0     0     2592.7151    40     2577.1441 UserPurge2: 1     8179    0.60%
      0     0     2592.6932    41     2577.1441 UserPurge2: 1     8214    0.60%
      0     0     2592.6733    42     2577.1441 UserPurge2: 1     8253    0.60%
      0     0     2592.6077    40     2577.1441 UserPurge2: 1     8297    0.60%
      0     0     2592.5629    39     2577.1441 UserPurge2: 1     8315    0.60%
      0     0     2592.5249    38     2577.1441 UserPurge2: 1     8339    0.60%
      0     0     2592.4738    38     2577.1441 UserPurge2: 1     8378    0.59%
      0     0     2592.4483    39     2577.1441 UserPurge2: 1     8402    0.59%
*     0+    0                         2578.2008     2592.4483             0.55%
      0     0     2592.4337    40     2578.2008 UserPurge2: 1     8424    0.55%
      0     0     2592.4154    40     2578.2008 UserPurge2: 1     8450    0.55%
      0     0     2592.4095    41     2578.2008 UserPurge2: 1     8467    0.55%
      0     0     2592.3729    42     2578.2008 UserPurge2: 1     8518    0.55%
      0     0     2592.3294    40     2578.2008 UserPurge2: 1     8556    0.55%
      0     0     2592.2915    40     2578.2008 UserPurge2: 1     8589    0.55%
      0     0     2592.2684    41     2578.2008 UserPurge2: 1     8615    0.55%
      0     0     2592.2469    41     2578.2008 UserPurge2: 1     8649    0.54%
      0     0     2592.1748    39     2578.2008 UserPurge2: 1     8690    0.54%
      0     0     2592.1133    37     2578.2008 UserPurge2: 1     8720    0.54%
      0     0     2592.0872    38     2578.2008 UserPurge2: 1     8742    0.54%
      0     0     2592.0766    38     2578.2008 UserPurge2: 1     8762    0.54%
      0     0     2592.0533    39     2578.2008 UserPurge2: 1     8788    0.54%
      0     0     2592.0370    39     2578.2008 UserPurge2: 1     8807    0.54%
      0     0     2592.0274    40     2578.2008 UserPurge2: 1     8825    0.54%
      0     0     2592.0158    41     2578.2008 UserPurge2: 1     8854    0.54%
      0     0     2592.0015    42     2578.2008 UserPurge2: 1     8876    0.54%
      0     0     2591.9782    42     2578.2008 UserPurge2: 1     8907    0.53%
      0     0     2591.9281    41     2578.2008 UserPurge2: 1     8942    0.53%
      0     0     2591.8891    40     2578.2008 UserPurge2: 1     8984    0.53%
      0     0     2591.8472    40     2578.2008 UserPurge2: 1     9020    0.53%
      0     0     2591.8214    41     2578.2008 UserPurge2: 1     9051    0.53%
      0     0     2591.7793    40     2578.2008 UserPurge2: 1     9091    0.53%
      0     0     2591.7185    40     2578.2008 UserPurge2: 1     9134    0.52%
      0     0     2591.6734    41     2578.2008 UserPurge2: 1     9175    0.52%
      0     0     2591.6518    41     2578.2008 UserPurge2: 1     9213    0.52%
      0     0     2591.6297    41     2578.2008 UserPurge2: 1     9238    0.52%
      0     0     2591.6062    40     2578.2008 UserPurge2: 1     9269    0.52%
      0     0     2591.5736    40     2578.2008 UserPurge2: 1     9299    0.52%
      0     0     2591.5310    40     2578.2008 UserPurge2: 1     9340    0.52%
      0     0     2591.5209    41     2578.2008 UserPurge2: 1     9355    0.52%
      0     0     2591.5033    41     2578.2008 UserPurge2: 1     9379    0.52%
      0     0     2591.4934    42     2578.2008 UserPurge2: 1     9414    0.52%
      0     0     2591.4665    42     2578.2008 UserPurge2: 1     9449    0.51%
      0     0     2591.4520    43     2578.2008 UserPurge2: 1     9478    0.51%
      0     0     2591.4399    43     2578.2008 UserPurge2: 1     9515    0.51%
      0     0     2591.3818    43     2578.2008 UserPurge2: 1     9561    0.51%
      0     0     2591.2693    39     2578.2008 UserPurge2: 1     9615    0.51%
      0     0     2591.2428    39     2578.2008 UserPurge2: 1     9640    0.51%
      0     0     2591.1937    40     2578.2008 UserPurge2: 1     9685    0.50%
      0     0     2591.1708    41     2578.2008 UserPurge2: 1     9727    0.50%
      0     0     2591.1658    40     2578.2008 UserPurge2: 1     9747    0.50%
      0     0     2591.1353    41     2578.2008 UserPurge2: 1     9784    0.50%
      0     0     2591.1118    42     2578.2008 UserPurge2: 1     9809    0.50%
      0     0     2591.0907    42     2578.2008 UserPurge2: 1     9846    0.50%
      0     0     2591.0606    42     2578.2008 UserPurge2: 1     9875    0.50%
      0     0     2591.0355    42     2578.2008 UserPurge2: 1     9906    0.50%
      0     0     2590.9824    41     2578.2008 UserPurge2: 1     9935    0.50%
      0     0     2590.9471    41     2578.2008 UserPurge2: 1     9968    0.49%
      0     0     2590.9044    41     2578.2008 UserPurge2: 1     9993    0.49%
      0     0     2590.8879    40     2578.2008 UserPurge2: 1    10019    0.49%
      0     0     2590.8748    41     2578.2008 UserPurge2: 1    10039    0.49%
      0     0     2590.8435    41     2578.2008 UserPurge2: 1    10080    0.49%
      0     0     2590.8148    42     2578.2008 UserPurge2: 1    10107    0.49%
      0     0     2590.7974    42     2578.2008 UserPurge2: 1    10134    0.49%
      0     0     2590.7912    41     2578.2008 UserPurge2: 1    10159    0.49%
      0     0     2590.7550    40     2578.2008 UserPurge2: 1    10203    0.49%
      0     0     2590.7007    40     2578.2008 UserPurge2: 1    10241    0.48%
      0     0     2590.6519    39     2578.2008 UserPurge2: 1    10282    0.48%
      0     0     2590.6309    40     2578.2008 UserPurge2: 1    10317    0.48%
      0     0     2590.5985    39     2578.2008 UserPurge2: 1    10348    0.48%
      0     0     2590.5578    38     2578.2008 UserPurge2: 1    10383    0.48%
      0     0     2590.5428    39     2578.2008 UserPurge2: 1    10403    0.48%
      0     0     2590.5209    39     2578.2008 UserPurge2: 1    10429    0.48%
      0     0     2590.5116    39     2578.2008 UserPurge2: 1    10452    0.48%
      0     0     2590.5067    40     2578.2008 UserPurge2: 1    10468    0.48%
      0     0     2590.4959    40     2578.2008 UserPurge2: 1    10499    0.48%
      0     0     2590.4889    41     2578.2008 UserPurge2: 1    10524    0.48%
      0     0     2590.4637    41     2578.2008 UserPurge2: 1    10562    0.48%
      0     0     2590.4581    42     2578.2008 UserPurge2: 1    10574    0.48%
      0     0     2590.4318    41     2578.2008 UserPurge2: 1    10616    0.47%
      0     0     2590.4067    40     2578.2008 UserPurge2: 1    10656    0.47%
      0     0     2590.3955    41     2578.2008 UserPurge2: 1    10682    0.47%
      0     0     2590.3839    41     2578.2008 UserPurge2: 1    10721    0.47%
      0     0     2590.3570    42     2578.2008 UserPurge2: 1    10760    0.47%
      0     0     2590.3481    42     2578.2008 UserPurge2: 1    10786    0.47%
      0     0     2590.3414    42     2578.2008 UserPurge2: 1    10813    0.47%
      0     0     2590.3296    43     2578.2008 UserPurge2: 1    10846    0.47%
      0     0     2590.2809    42     2578.2008 UserPurge2: 1    10894    0.47%
      0     0     2590.2463    42     2578.2008 UserPurge2: 1    10933    0.47%
      0     0     2590.2417    43     2578.2008 UserPurge2: 1    10948    0.47%
      0     0     2590.2174    42     2578.2008 UserPurge2: 1    10986    0.47%
      0     0     2590.2010    42     2578.2008 UserPurge2: 1    11029    0.47%
      0     0     2590.1766    41     2578.2008 UserPurge2: 1    11066    0.46%
      0     0     2590.1615    42     2578.2008 UserPurge2: 1    11090    0.46%
      0     0     2590.1486    42     2578.2008 UserPurge2: 1    11113    0.46%
      0     0     2590.1343    43     2578.2008 UserPurge2: 1    11133    0.46%
      0     0     2590.1222    42     2578.2008 UserPurge2: 1    11151    0.46%
      0     0     2590.1069    43     2578.2008 UserPurge2: 1    11178    0.46%
      0     0     2590.0854    43     2578.2008 UserPurge2: 1    11212    0.46%
      0     0     2590.0708    44     2578.2008 UserPurge2: 1    11239    0.46%
      0     0     2590.0552    45     2578.2008 UserPurge2: 1    11273    0.46%
      0     0     2590.0473    46     2578.2008 UserPurge2: 1    11303    0.46%
      0     0     2590.0383    46     2578.2008 UserPurge2: 1    11318    0.46%
      0     0     2590.0258    47     2578.2008 UserPurge2: 1    11344    0.46%
      0     0     2589.9970    45     2578.2008 UserPurge2: 1    11392    0.46%
      0     0     2589.9810    45     2578.2008 UserPurge2: 1    11429    0.46%
      0     0     2589.9666    46     2578.2008 UserPurge2: 1    11468    0.46%
      0     0     2589.9488    46     2578.2008 UserPurge2: 1    11514    0.46%
      0     0     2589.9193    45     2578.2008 UserPurge2: 1    11554    0.45%
      0     0     2589.8646    44     2578.2008 UserPurge2: 1    11615    0.45%
      0     0     2589.8212    42     2578.2008 UserPurge2: 1    11644    0.45%
      0     0     2589.7797    41     2578.2008 UserPurge2: 1    11684    0.45%
      0     0     2589.7620    42     2578.2008 UserPurge2: 1    11702    0.45%
      0     0     2589.7411    43     2578.2008 UserPurge2: 1    11731    0.45%
      0     0     2589.7281    41     2578.2008 UserPurge2: 1    11756    0.45%
*     0+    0                         2584.2768     2589.7281             0.21%
      0     0     2589.7093    42     2584.2768 UserPurge2: 1    11784    0.21%
      0     0     2589.6882    43     2584.2768 UserPurge2: 1    11810    0.21%
      0     0     2589.6764    44     2584.2768 UserPurge2: 1    11831    0.21%
      0     2     2589.6764    44     2584.2768     2589.6758    11831    0.21%
Elapsed time = 55.76 sec. (5747.47 ticks, tree = 0.01 MB, solutions = 3)
      1     3     2585.0775     2     2584.2768     2589.6758    28941    0.21%
      2     4     2585.0656     4     2584.2768     2589.6758    31517    0.21%
*     3     3      integral     0     2585.0167     2589.6758    32797    0.18%
      4     4     2585.0609    14     2585.0167     2589.6758    34573    0.18%
      9     5     2585.0530     2     2585.0167     2589.6758    34874    0.18%
*    11     3      integral     0     2585.0510     2589.6758    34881    0.18%
     12     1        cutoff           2585.0510     2585.0589    64995    0.00%

User cuts applied:  2230

Root node processing (before b&c):
  Real time             =   55.76 sec. (5753.71 ticks)
Sequential b&c:
  Real time             =  196.96 sec. (50146.72 ticks)
                          ------------
Total (root+branch&cut) =  252.72 sec. (55900.43 ticks)
@Parameters: 
is_S_cut                                true
is_add_all_yinF                         true
is_start_value                          true
is_usercut                              true
is_visualization                        false
uc_only_rootnode                        false

data                                    Qi
fn                                      data/Qi/instance_800_1000.csv
mode                                    NewSubmodular
solver                                  cplex

p                                       10
r                                       5

EPS                                     1.0e-06
EPS_vio                                 1.0e-04
beta                                    0.10
gap                                     0.00
nodelimit                               Inf
timelimit                               7200.00


@PrintInfos
ItCnt: 64998
Current gap: 0.00 %
Termination Status: OPTIMAL
Primal Status: FEASIBLE_POINT
Solve Time: 252.72 sec
Objective Value: 2585.051007
Number of Nodes:     14

CutInfo: [phase] num / time (sec) 
ZLP             [phase1]     0 / 0.00 [rLC]     0 / 0.00 [rUC]     0 / 0.00 [sLC]     0 / 0.00 [sUC]     0 / 0.00 
OldSubmodular   [phase1]     0 / 0.00 [rLC]     0 / 0.00 [rUC]     0 / 0.00 [sLC]     0 / 0.00 [sUC]     0 / 0.00 
NewSubmodular   [phase1]     0 / 0.00 [rLC]   133 / 27.03 [rUC]   749 / 22.43 [sLC]     0 / 8.33 [sUC]  2186 / 152.22 
PMP             [phase1]     0 / 0.00 [rLC]     6 / 22.62 [rUC]     0 / 0.00 [sLC]     2 / 8.30 [sUC]    12 / 49.16 
Separation Round: [phase1] 0  [rLC] 121  [rUC] 444  [sLC] 2  [sUC] 808
Root Best Bound 2589.675777
Root Best Integer: 2584.276776
Best Bound: 2585.051007
Best Integer: 2585.051007

